32      4       
12      18      15      13      
0       0       0       0       0       2       2       3       
8       0       0       13      13      3       6       5       4       
3       10      0       0       13      3       7       6       5       
9       1       11      0       0       3       13      9       7       
6       6       0       4       0       7       23      19      15      13      12      11      9       
3       0       15      0       7       5       24      20      19      14      8       
1       10      0       5       0       11      24      23      22      21      19      18      15      14      12      11      10      
4       8       11      0       0       10      23      22      21      17      16      15      13      12      11      10      
7       0       0       8       3       8       24      21      20      18      17      16      14      10      
6       8       0       13      0       5       31      28      27      26      25      
5       12      0       0       3       5       31      28      27      26      25      
10      12      0       0       12      5       31      28      27      26      25      
9       0       18      14      0       5       31      28      27      26      25      
1       12      6       0       0       4       31      28      27      26      
10      0       18      0       4       4       28      27      26      25      
3       0       8       0       13      4       31      28      26      25      
4       11      0       11      0       4       28      27      26      25      
3       12      0       11      0       4       31      28      26      25      
6       0       13      9       0       4       31      30      27      26      
8       0       0       15      12      4       31      30      27      26      
8       0       18      0       10      3       27      26      25      
6       0       7       12      0       3       27      26      25      
2       12      0       0       11      2       28      26      
9       0       10      0       13      2       27      25      
4       0       18      14      0       2       30      29      
5       7       18      0       0       1       29      
4       0       0       15      8       1       29      
1       0       17      10      0       1       30      
10      0       15      0       11      1       32      
1       2       0       0       13      1       32      
10      12      0       15      0       1       32      
0       0       0       0       0       0       
